NAME : amz0904.147505_147505.tour
COMMENT : Cost = 147505_147505
COMMENT : Found by LKH-AMZ [Keld Helsgaun] Sun May 11 14:41:49 2025
COMMENT : TW viol.: 0 #: 0
TYPE : TOUR
DIMENSION : 165
TOUR_SECTION
100
56
15
84
65
70
113
19
50
141
88
129
148
151
99
22
158
24
107
64
132
72
157
45
51
80
119
128
11
47
33
159
7
32
16
17
165
139
21
155
118
39
48
146
152
58
71
89
106
31
25
135
87
136
13
27
121
147
77
142
134
102
82
108
9
163
55
125
130
37
79
160
133
103
164
18
76
138
29
43
42
10
92
35
36
20
90
145
98
140
111
161
162
44
123
4
96
67
116
124
144
143
49
105
46
61
62
94
66
120
95
97
75
6
114
23
104
112
109
78
60
154
110
117
41
91
57
86
69
150
122
12
1
59
8
26
81
126
149
131
3
73
40
34
153
63
28
156
74
5
38
137
14
30
115
101
83
2
93
52
68
127
85
53
54
-1
EOF
